nN = 8;
nR = 32;
nH = 1;

a = [[21, 22, 17, 16, 17, 24, 17, 15, 25, 18, 18, 21, 19, 23, 24, 25, 25, 16, 22, 20, 20, 20, 20, 21, 24, 19, 22, 15, 20, 17, 17, 22], [18, 24, 18, 22, 19, 25, 23, 15, 24, 22, 19, 19, 20, 25, 23, 25, 20, 16, 22, 24, 23, 17, 24, 18, 18, 22, 15, 20, 17, 19, 15, 22], [24, 20, 20, 15, 21, 15, 21, 22, 19, 16, 16, 19, 21, 21, 15, 17, 24, 17, 19, 18, 21, 25, 17, 24, 21, 24, 25, 17, 19, 24, 21, 22], [21, 20, 16, 21, 20, 18, 22, 17, 18, 19, 16, 15, 21, 24, 23, 19, 20, 20, 16, 16, 21, 17, 17, 20, 22, 21, 16, 16, 15, 17, 24, 24], [20, 19, 20, 25, 17, 22, 17, 18, 20, 23, 20, 16, 17, 24, 18, 16, 20, 23, 22, 15, 15, 23, 18, 21, 25, 20, 18, 19, 24, 25, 17, 16], [17, 24, 22, 23, 17, 20, 19, 16, 24, 21, 25, 16, 25, 23, 22, 23, 15, 15, 15, 20, 20, 21, 23, 24, 21, 25, 23, 22, 25, 24, 21, 17], [15, 22, 23, 24, 17, 23, 16, 16, 18, 19, 15, 15, 23, 18, 24, 25, 18, 25, 18, 15, 16, 22, 19, 18, 19, 22, 18, 23, 16, 15, 25, 25], [20, 18, 18, 24, 25, 20, 16, 19, 25, 24, 25, 24, 15, 22, 21, 23, 15, 24, 17, 15, 24, 16, 25, 19, 19, 22, 17, 16, 15, 20, 20, 18]];
c = [[[0, 0, 0, 0, 0, 0, 0, 0, 0, 0, 0, 0, 0, 0, 0, 0, 0, 0, 0, 0, 0, 0, 0, 0, 0, 0, 0, 0, 0, 0, 0, 0], [46, 45, 37, 49, 44, 37, 41, 37, 32, 38, 41, 50, 34, 44, 39, 48, 49, 42, 30, 37, 42, 34, 40, 49, 45, 45, 40, 38, 33, 42, 47, 34], [32, 43, 30, 45, 42, 37, 40, 35, 49, 48, 41, 33, 47, 38, 44, 43, 38, 46, 30, 42, 45, 40, 33, 31, 39, 36, 41, 50, 38, 47, 32, 33], [36, 39, 39, 49, 49, 49, 33, 33, 39, 30, 38, 33, 35, 30, 30, 38, 40, 47, 40, 45, 48, 40, 33, 38, 41, 49, 44, 49, 32, 32, 47, 36], [45, 43, 34, 44, 30, 32, 38, 48, 44, 45, 43, 39, 38, 48, 34, 34, 33, 47, 33, 35, 33, 31, 30, 36, 43, 45, 32, 42, 30, 39, 40, 38], [44, 49, 34, 35, 33, 34, 35, 46, 32, 32, 39, 49, 37, 34, 43, 44, 47, 40, 35, 31, 45, 43, 39, 44, 37, 31, 33, 37, 33, 34, 44, 47], [47, 37, 45, 34, 39, 50, 37, 33, 42, 38, 41, 45, 50, 49, 34, 38, 31, 47, 44, 34, 31, 46, 40, 40, 38, 42, 41, 44, 49, 37, 36, 44], [40, 38, 35, 50, 32, 34, 49, 48, 50, 50, 48, 40, 44, 30, 49, 48, 38, 44, 43, 41, 39, 49, 36, 47, 36, 50, 34, 36, 35, 42, 34, 49]], [[0, 0, 0, 0, 0, 0, 0, 0, 0, 0, 0, 0, 0, 0, 0, 0, 0, 0, 0, 0, 0, 0, 0, 0, 0, 0, 0, 0, 0, 0, 0, 0], [0, 0, 0, 0, 0, 0, 0, 0, 0, 0, 0, 0, 0, 0, 0, 0, 0, 0, 0, 0, 0, 0, 0, 0, 0, 0, 0, 0, 0, 0, 0, 0], [42, 33, 33, 49, 37, 48, 43, 38, 45, 30, 34, 45, 36, 40, 41, 48, 31, 50, 44, 47, 36, 36, 43, 41, 35, 46, 37, 43, 48, 44, 38, 30], [31, 42, 41, 40, 49, 40, 35, 43, 43, 45, 45, 46, 42, 41, 49, 38, 49, 33, 48, 47, 41, 41, 49, 30, 41, 48, 37, 34, 37, 43, 42, 50], [38, 48, 41, 40, 49, 30, 40, 47, 48, 32, 33, 32, 37, 48, 42, 39, 42, 42, 46, 45, 47, 31, 36, 34, 32, 31, 43, 38, 34, 38, 39, 41], [50, 38, 47, 50, 43, 44, 37, 44, 48, 50, 47, 40, 47, 31, 49, 41, 36, 30, 35, 30, 33, 36, 48, 41, 48, 39, 35, 39, 46, 40, 34, 34], [48, 35, 46, 47, 35, 50, 32, 33, 43, 50, 34, 33, 36, 31, 42, 32, 43, 44, 36, 33, 46, 38, 42, 41, 36, 36, 35, 49, 30, 37, 49, 48], [42, 47, 37, 47, 33, 43, 33, 45, 42, 30, 37, 42, 36, 42, 48, 32, 47, 31, 49, 31, 46, 39, 40, 32, 33, 41, 32, 35, 40, 39, 36, 33]], [[0, 0, 0, 0, 0, 0, 0, 0, 0, 0, 0, 0, 0, 0, 0, 0, 0, 0, 0, 0, 0, 0, 0, 0, 0, 0, 0, 0, 0, 0, 0, 0], [0, 0, 0, 0, 0, 0, 0, 0, 0, 0, 0, 0, 0, 0, 0, 0, 0, 0, 0, 0, 0, 0, 0, 0, 0, 0, 0, 0, 0, 0, 0, 0], [0, 0, 0, 0, 0, 0, 0, 0, 0, 0, 0, 0, 0, 0, 0, 0, 0, 0, 0, 0, 0, 0, 0, 0, 0, 0, 0, 0, 0, 0, 0, 0], [34, 41, 45, 31, 38, 35, 32, 35, 42, 47, 34, 43, 33, 34, 40, 47, 47, 35, 38, 49, 30, 37, 41, 42, 48, 44, 43, 38, 33, 49, 36, 44], [49, 33, 47, 39, 50, 41, 38, 37, 41, 43, 35, 41, 30, 30, 41, 44, 42, 48, 31, 39, 35, 35, 45, 43, 45, 40, 33, 39, 33, 30, 39, 45], [44, 50, 43, 40, 37, 33, 37, 34, 32, 42, 43, 45, 50, 48, 31, 38, 45, 34, 40, 32, 30, 35, 32, 35, 38, 46, 39, 42, 50, 30, 50, 39], [50, 36, 34, 47, 50, 33, 38, 36, 31, 41, 34, 39, 50, 39, 36, 44, 33, 46, 32, 48, 40, 48, 49, 40, 43, 46, 40, 39, 35, 44, 47, 48], [44, 38, 34, 39, 44, 34, 37, 39, 42, 46, 50, 46, 47, 31, 41, 34, 44, 32, 42, 42, 45, 50, 32, 36, 30, 46, 45, 37, 40, 46, 40, 37]], [[0, 0, 0, 0, 0, 0, 0, 0, 0, 0, 0, 0, 0, 0, 0, 0, 0, 0, 0, 0, 0, 0, 0, 0, 0, 0, 0, 0, 0, 0, 0, 0], [0, 0, 0, 0, 0, 0, 0, 0, 0, 0, 0, 0, 0, 0, 0, 0, 0, 0, 0, 0, 0, 0, 0, 0, 0, 0, 0, 0, 0, 0, 0, 0], [0, 0, 0, 0, 0, 0, 0, 0, 0, 0, 0, 0, 0, 0, 0, 0, 0, 0, 0, 0, 0, 0, 0, 0, 0, 0, 0, 0, 0, 0, 0, 0], [0, 0, 0, 0, 0, 0, 0, 0, 0, 0, 0, 0, 0, 0, 0, 0, 0, 0, 0, 0, 0, 0, 0, 0, 0, 0, 0, 0, 0, 0, 0, 0], [30, 32, 42, 43, 30, 39, 45, 50, 35, 37, 34, 49, 34, 40, 32, 32, 50, 47, 36, 39, 34, 35, 38, 30, 49, 45, 32, 48, 31, 33, 31, 43], [40, 32, 44, 47, 31, 41, 37, 46, 35, 32, 33, 36, 30, 38, 49, 37, 44, 47, 36, 35, 37, 45, 37, 45, 43, 37, 39, 48, 36, 36, 38, 40], [41, 50, 32, 38, 36, 30, 49, 31, 44, 33, 50, 33, 34, 46, 33, 40, 33, 34, 40, 35, 49, 45, 33, 39, 40, 42, 41, 47, 37, 41, 47, 39], [31, 31, 49, 37, 49, 45, 46, 32, 42, 37, 42, 45, 32, 47, 40, 39, 47, 32, 49, 50, 48, 43, 50, 50, 39, 50, 47, 41, 42, 42, 43, 37]], [[0, 0, 0, 0, 0, 0, 0, 0, 0, 0, 0, 0, 0, 0, 0, 0, 0, 0, 0, 0, 0, 0, 0, 0, 0, 0, 0, 0, 0, 0, 0, 0], [0, 0, 0, 0, 0, 0, 0, 0, 0, 0, 0, 0, 0, 0, 0, 0, 0, 0, 0, 0, 0, 0, 0, 0, 0, 0, 0, 0, 0, 0, 0, 0], [0, 0, 0, 0, 0, 0, 0, 0, 0, 0, 0, 0, 0, 0, 0, 0, 0, 0, 0, 0, 0, 0, 0, 0, 0, 0, 0, 0, 0, 0, 0, 0], [0, 0, 0, 0, 0, 0, 0, 0, 0, 0, 0, 0, 0, 0, 0, 0, 0, 0, 0, 0, 0, 0, 0, 0, 0, 0, 0, 0, 0, 0, 0, 0], [0, 0, 0, 0, 0, 0, 0, 0, 0, 0, 0, 0, 0, 0, 0, 0, 0, 0, 0, 0, 0, 0, 0, 0, 0, 0, 0, 0, 0, 0, 0, 0], [48, 46, 40, 37, 34, 48, 36, 35, 49, 36, 42, 37, 33, 47, 30, 37, 50, 41, 32, 32, 33, 40, 44, 32, 36, 30, 48, 43, 31, 36, 35, 32], [49, 43, 36, 32, 47, 32, 30, 33, 36, 39, 31, 46, 46, 45, 38, 43, 30, 32, 35, 50, 43, 50, 33, 35, 50, 34, 31, 36, 32, 42, 33, 39], [50, 46, 31, 36, 46, 43, 35, 47, 32, 47, 32, 35, 30, 41, 43, 31, 48, 41, 45, 48, 35, 50, 45, 48, 30, 36, 32, 45, 44, 42, 33, 43]], [[0, 0, 0, 0, 0, 0, 0, 0, 0, 0, 0, 0, 0, 0, 0, 0, 0, 0, 0, 0, 0, 0, 0, 0, 0, 0, 0, 0, 0, 0, 0, 0], [0, 0, 0, 0, 0, 0, 0, 0, 0, 0, 0, 0, 0, 0, 0, 0, 0, 0, 0, 0, 0, 0, 0, 0, 0, 0, 0, 0, 0, 0, 0, 0], [0, 0, 0, 0, 0, 0, 0, 0, 0, 0, 0, 0, 0, 0, 0, 0, 0, 0, 0, 0, 0, 0, 0, 0, 0, 0, 0, 0, 0, 0, 0, 0], [0, 0, 0, 0, 0, 0, 0, 0, 0, 0, 0, 0, 0, 0, 0, 0, 0, 0, 0, 0, 0, 0, 0, 0, 0, 0, 0, 0, 0, 0, 0, 0], [0, 0, 0, 0, 0, 0, 0, 0, 0, 0, 0, 0, 0, 0, 0, 0, 0, 0, 0, 0, 0, 0, 0, 0, 0, 0, 0, 0, 0, 0, 0, 0], [0, 0, 0, 0, 0, 0, 0, 0, 0, 0, 0, 0, 0, 0, 0, 0, 0, 0, 0, 0, 0, 0, 0, 0, 0, 0, 0, 0, 0, 0, 0, 0], [49, 50, 38, 42, 46, 40, 45, 40, 43, 33, 37, 45, 34, 47, 47, 47, 44, 42, 49, 42, 49, 35, 45, 38, 44, 31, 34, 44, 42, 40, 31, 33], [40, 37, 40, 32, 46, 39, 38, 35, 37, 47, 33, 33, 39, 42, 34, 42, 48, 47, 49, 41, 45, 37, 49, 42, 45, 40, 37, 49, 44, 43, 32, 38]], [[0, 0, 0, 0, 0, 0, 0, 0, 0, 0, 0, 0, 0, 0, 0, 0, 0, 0, 0, 0, 0, 0, 0, 0, 0, 0, 0, 0, 0, 0, 0, 0], [0, 0, 0, 0, 0, 0, 0, 0, 0, 0, 0, 0, 0, 0, 0, 0, 0, 0, 0, 0, 0, 0, 0, 0, 0, 0, 0, 0, 0, 0, 0, 0], [0, 0, 0, 0, 0, 0, 0, 0, 0, 0, 0, 0, 0, 0, 0, 0, 0, 0, 0, 0, 0, 0, 0, 0, 0, 0, 0, 0, 0, 0, 0, 0], [0, 0, 0, 0, 0, 0, 0, 0, 0, 0, 0, 0, 0, 0, 0, 0, 0, 0, 0, 0, 0, 0, 0, 0, 0, 0, 0, 0, 0, 0, 0, 0], [0, 0, 0, 0, 0, 0, 0, 0, 0, 0, 0, 0, 0, 0, 0, 0, 0, 0, 0, 0, 0, 0, 0, 0, 0, 0, 0, 0, 0, 0, 0, 0], [0, 0, 0, 0, 0, 0, 0, 0, 0, 0, 0, 0, 0, 0, 0, 0, 0, 0, 0, 0, 0, 0, 0, 0, 0, 0, 0, 0, 0, 0, 0, 0], [0, 0, 0, 0, 0, 0, 0, 0, 0, 0, 0, 0, 0, 0, 0, 0, 0, 0, 0, 0, 0, 0, 0, 0, 0, 0, 0, 0, 0, 0, 0, 0], [36, 49, 31, 39, 32, 35, 36, 41, 44, 33, 43, 47, 38, 43, 41, 49, 43, 45, 48, 41, 50, 46, 30, 49, 48, 37, 37, 47, 30, 50, 37, 44]], [[0, 0, 0, 0, 0, 0, 0, 0, 0, 0, 0, 0, 0, 0, 0, 0, 0, 0, 0, 0, 0, 0, 0, 0, 0, 0, 0, 0, 0, 0, 0, 0], [0, 0, 0, 0, 0, 0, 0, 0, 0, 0, 0, 0, 0, 0, 0, 0, 0, 0, 0, 0, 0, 0, 0, 0, 0, 0, 0, 0, 0, 0, 0, 0], [0, 0, 0, 0, 0, 0, 0, 0, 0, 0, 0, 0, 0, 0, 0, 0, 0, 0, 0, 0, 0, 0, 0, 0, 0, 0, 0, 0, 0, 0, 0, 0], [0, 0, 0, 0, 0, 0, 0, 0, 0, 0, 0, 0, 0, 0, 0, 0, 0, 0, 0, 0, 0, 0, 0, 0, 0, 0, 0, 0, 0, 0, 0, 0], [0, 0, 0, 0, 0, 0, 0, 0, 0, 0, 0, 0, 0, 0, 0, 0, 0, 0, 0, 0, 0, 0, 0, 0, 0, 0, 0, 0, 0, 0, 0, 0], [0, 0, 0, 0, 0, 0, 0, 0, 0, 0, 0, 0, 0, 0, 0, 0, 0, 0, 0, 0, 0, 0, 0, 0, 0, 0, 0, 0, 0, 0, 0, 0], [0, 0, 0, 0, 0, 0, 0, 0, 0, 0, 0, 0, 0, 0, 0, 0, 0, 0, 0, 0, 0, 0, 0, 0, 0, 0, 0, 0, 0, 0, 0, 0], [0, 0, 0, 0, 0, 0, 0, 0, 0, 0, 0, 0, 0, 0, 0, 0, 0, 0, 0, 0, 0, 0, 0, 0, 0, 0, 0, 0, 0, 0, 0, 0]]];

q = [[[12], [24], [13], [15], [19], [7], [6], [25], [15], [19], [12], [24], [24], [25], [15], [19], [15], [24], [8], [18], [9], [23], [10], [8], [11], [10], [18], [21], [20], [14], [20], [16]], [[10], [20], [10], [24], [10], [25], [11], [11], [23], [14], [6], [16], [5], [20], [15], [11], [11], [19], [5], [7], [25], [9], [5], [24], [6], [13], [13], [25], [19], [18], [22], [7]], [[24], [6], [16], [19], [18], [9], [20], [23], [19], [23], [15], [10], [25], [25], [12], [17], [16], [8], [10], [9], [9], [21], [19], [11], [14], [22], [20], [23], [23], [9], [8], [25]], [[17], [19], [11], [25], [24], [11], [16], [8], [22], [18], [5], [6], [21], [22], [19], [6], [14], [14], [13], [12], [21], [20], [8], [12], [25], [11], [13], [20], [22], [22], [15], [8]], [[8], [8], [19], [24], [25], [20], [18], [22], [9], [21], [19], [18], [22], [5], [6], [6], [23], [15], [12], [25], [14], [10], [18], [14], [10], [5], [22], [7], [17], [16], [21], [13]], [[10], [23], [10], [17], [19], [7], [11], [22], [25], [19], [12], [25], [5], [20], [9], [17], [11], [24], [7], [13], [23], [19], [25], [7], [6], [13], [9], [5], [15], [7], [21], [7]], [[6], [6], [20], [5], [21], [7], [13], [7], [11], [7], [19], [16], [15], [22], [19], [13], [24], [12], [8], [25], [17], [12], [14], [5], [11], [9], [18], [5], [11], [22], [14], [12]], [[13], [21], [7], [8], [24], [15], [9], [6], [16], [5], [6], [10], [23], [20], [8], [24], [13], [9], [7], [23], [6], [21], [25], [9], [6], [17], [21], [6], [8], [17], [18], [25]]];
Q = [[51], [45], [52], [50], [49], [46], [42], [44]];
